c This is QMaxSAT 2017 based on 14.07
c This is Glucose 3.0
c This is MiniSat 2.2.0
c WARNING: for repeatability, setting FPU to use double precision
c card = mrwto, comp = 0, pmodel = 0, narr = 8, mct = 152, verb = 0
cr firstCPXsol 0 0 0
c top = 158709225
c |  Number of variables:    50562                                            |
c |  Number of clauses:      7718985                                          |
c |  Weight of hard clauses: 158709225                                        |
c |  Number of soft clauses: 200528                                           |
c |  Number of unit soft clauses: 0                                           |
c |  Maximum Cardinality (by unit): 1422784848   (0           )               |
c last restart ## conflicts  :  0 514 
o 106741 | cpuTime 0.859886 s
c Sum of weights = 177848106
c A number of soft clauses remained = 25066
c MRWTO encoding for Pseudo-Boolean Constraints
c sizeMax=65536
c No.0 Divisor=11	generated by pow1
c No.1 Divisor=10	generated by pow1
c No.2 Divisor=10	generated by pow1
c No.3 Divisor=11	generated by pow1
c No.4 Divisor=11	generated by pow1
c p0= 11	p1= 10	p2= 10	p3= 11	p4= 11	
c number of digits = 6
c linkingVar[0].size = 11, linkingVar[1].size = 10, linkingVar[2].size = 10, linkingVar[3].size = 11, linkingVar[4].size = 9, linkingVar[5].size = 1, 
c Pseudo-Boolean Constraints: 891071 variables and 8662372 clauses
c Sum of weights = 177848106
c A number of soft clauses remained = 25066
c MRWTO encoding for Pseudo-Boolean Constraints
c sizeMax=65536
c No.0 Divisor=11	generated by pow1
c No.1 Divisor=10	generated by pow1
c No.2 Divisor=10	generated by pow1
c No.3 Divisor=11	generated by pow1
c No.4 Divisor=11	generated by pow1
c p0= 11	p1= 10	p2= 10	p3= 11	p4= 11	
c number of digits = 6
c linkingVar[0].size = 11, linkingVar[1].size = 10, linkingVar[2].size = 10, linkingVar[3].size = 11, linkingVar[4].size = 9, linkingVar[5].size = 1, 
c Pseudo-Boolean Constraints: 891071 variables and 8662372 clauses
c Sum of weights = 177848106
c A number of soft clauses remained = 25066
c MRWTO encoding for Pseudo-Boolean Constraints
c sizeMax=65536
c No.0 Divisor=11	generated by pow1
c No.1 Divisor=10	generated by pow1
c No.2 Divisor=10	generated by pow1
c No.3 Divisor=11	generated by pow1
c No.4 Divisor=11	generated by pow1
c p0= 11	p1= 10	p2= 10	p3= 11	p4= 11	
c number of digits = 6
c linkingVar[0].size = 11, linkingVar[1].size = 10, linkingVar[2].size = 10, linkingVar[3].size = 11, linkingVar[4].size = 9, linkingVar[5].size = 1, 
c Pseudo-Boolean Constraints: 891071 variables and 8662372 clauses
c Sum of weights = 177848106
c A number of soft clauses remained = 25066
c MRWTO encoding for Pseudo-Boolean Constraints
c sizeMax=65536
c No.0 Divisor=11	generated by pow1
c No.1 Divisor=10	generated by pow1
c No.2 Divisor=10	generated by pow1
c No.3 Divisor=11	generated by pow1
c No.4 Divisor=11	generated by pow1
c p0= 11	p1= 10	p2= 10	p3= 11	p4= 11	
c number of digits = 6
c linkingVar[0].size = 11, linkingVar[1].size = 10, linkingVar[2].size = 10, linkingVar[3].size = 11, linkingVar[4].size = 9, linkingVar[5].size = 1, 
c Pseudo-Boolean Constraints: 891071 variables and 8662372 clauses
c Sum of weights = 177848106
c A number of soft clauses remained = 25066
c MRWTO encoding for Pseudo-Boolean Constraints
c sizeMax=65536
c No.0 Divisor=11	generated by pow1
c No.1 Divisor=10	generated by pow1
c No.2 Divisor=10	generated by pow1
c No.3 Divisor=11	generated by pow1
c No.4 Divisor=11	generated by pow1
c p0= 11	p1= 10	p2= 10	p3= 11	p4= 11	
c number of digits = 6
c linkingVar[0].size = 11, linkingVar[1].size = 10, linkingVar[2].size = 10, linkingVar[3].size = 11, linkingVar[4].size = 9, linkingVar[5].size = 1, 
c Pseudo-Boolean Constraints: 891071 variables and 8662372 clauses
c Sum of weights = 177848106
c A number of soft clauses remained = 25066
c MRWTO encoding for Pseudo-Boolean Constraints
c sizeMax=65536
c No.0 Divisor=11	generated by pow1
c No.1 Divisor=10	generated by pow1
c No.2 Divisor=10	generated by pow1
c No.3 Divisor=11	generated by pow1
c No.4 Divisor=11	generated by pow1
c p0= 11	p1= 10	p2= 10	p3= 11	p4= 11	
c number of digits = 6
c linkingVar[0].size = 11, linkingVar[1].size = 10, linkingVar[2].size = 10, linkingVar[3].size = 11, linkingVar[4].size = 9, linkingVar[5].size = 1, 
c Pseudo-Boolean Constraints: 891071 variables and 8662372 clauses
c Sum of weights = 177848106
c A number of soft clauses remained = 25066
c MRWTO encoding for Pseudo-Boolean Constraints
c sizeMax=65536
c No.0 Divisor=11	generated by pow1
c No.1 Divisor=10	generated by pow1
c No.2 Divisor=10	generated by pow1
c No.3 Divisor=11	generated by pow1
c No.4 Divisor=11	generated by pow1
c p0= 11	p1= 10	p2= 10	p3= 11	p4= 11	
c number of digits = 6
c linkingVar[0].size = 11, linkingVar[1].size = 10, linkingVar[2].size = 10, linkingVar[3].size = 11, linkingVar[4].size = 9, linkingVar[5].size = 1, 
c Pseudo-Boolean Constraints: 891071 variables and 8662372 clauses
c Sum of weights = 177848106
c A number of soft clauses remained = 25066
c MRWTO encoding for Pseudo-Boolean Constraints
c sizeMax=65536
c No.0 Divisor=11	generated by pow1
c No.1 Divisor=10	generated by pow1
c No.2 Divisor=10	generated by pow1
c No.3 Divisor=11	generated by pow1
c No.4 Divisor=11	generated by pow1
c p0= 11	p1= 10	p2= 10	p3= 11	p4= 11	
c number of digits = 6
c linkingVar[0].size = 11, linkingVar[1].size = 10, linkingVar[2].size = 10, linkingVar[3].size = 11, linkingVar[4].size = 9, linkingVar[5].size = 1, 
c Pseudo-Boolean Constraints: 891071 variables and 8662372 clauses
s UNKNOWN
c Search is stopped by a limit (maybe time-limit)
cr positiVarArr: [ | 9(1->2) | 169(1->3) | 329(1->4) | 489(1->5) | 649(1->6) | 809(1->7) | 969(1->8) | 1129(1->9) | 1289(2->10) | 1449(3->11) | 1609(4->12) | 1769(5->13) | 1929(6->14) | 2089(7->15) | 2249(8->16) | 2409(9->17) | 2569(10->18) | 2729(11->19) | 2889(12->20) | 3049(13->21) | 3209(14->22) | 3369(15->23) | 3529(16->24) | 3689(17->25) | 3849(18->26) | 4009(19->27) | 4169(20->28) | 4329(21->29) | 4489(22->30) | 4649(23->31) | 4809(24->32) | 4969(25->33) | 5129(26->34) | 5289(27->35) | 5449(28->36) | 5609(29->37) | 5769(30->38) | 5929(31->39) | 6089(32->40) | 6249(33->41) | 6409(34->42) | 6569(35->43) | 6729(36->44) | 6889(37->45) | 7049(38->46) | 7209(39->47) | 7369(40->48) | 7529(41->49) | 7689(42->50) | 7849(43->51) | 8009(44->52) | 8169(45->53) | 8329(46->54) | 8489(47->55) | 8649(48->56) | 8809(49->57) | 8969(50->58) | 9129(51->59) | 9289(52->60) | 9449(53->61) | 9609(54->62) | 9769(55->63) | 9929(56->64) | 10089(57->65) | 10249(58->66) | 10409(59->67) | 10569(60->68) | 10729(61->69) | 10889(62->70) | 11049(63->71) | 11209(64->72) | 11369(65->73) | 11529(66->74) | 11689(67->75) | 11849(68->76) | 12009(69->77) | 12169(70->78) | 12329(71->79) | 12489(72->80) | 12649(73->81) | 12809(74->82) | 12969(75->83) | 13129(76->84) | 13289(77->85) | 13449(78->86) | 13609(79->87) | 13769(80->88) | 13929(81->89) | 14089(82->90) | 14249(83->91) | 14409(84->92) | 14569(85->93) | 14729(86->94) | 14889(87->95) | 15049(88->96) | 15209(89->97) | 15369(90->98) | 15529(91->99) | 15689(92->100) | 15849(93->101) | 16009(94->102) | 16169(95->103) | 16329(96->104) | 16489(97->105) | 16649(98->106) | 16809(99->107) | 16969(100->108) | 17129(101->109) | 17289(102->110) | 17449(103->111) | 17609(104->112) | 17769(105->113) | 17929(106->114) | 18089(107->115) | 18249(108->116) | 18409(109->117) | 18569(110->118) | 18729(111->119) | 18889(112->120) | 19049(113->121) | 19209(114->122) | 19369(115->123) | 19529(116->124) | 19689(117->125) | 19849(118->126) | 20009(119->127) | 20169(120->128) | 20329(121->129) | 20489(122->130) | 20649(123->131) | 20809(124->132) | 20969(125->133) | 21129(126->134) | 21289(127->135) | 21449(128->136) | 21609(129->137) | 21769(130->138) | 21929(131->139) | 22089(132->140) | 22249(133->141) | 22409(134->142) | 22569(135->143) | 22729(136->144) | 22889(137->145) | 23049(138->146) | 23209(139->147) | 23369(140->148) | 23529(141->149) | 23689(142->150) | 23849(143->151) | 24009(144->152) | 24017(145->1) | 24175(146->1) | 24333(147->1) | 24491(148->1) | 24649(149->1) | 24807(150->1) | 24965(151->1) | 25123(152->1) | ]
cr the 1-th chain: [ 1->2->10->18->26->34->42->50->58->66->74->82->90->98->106->114->122->130->138->146->1 ] (#non-depot=19) {#cumul.=20}
cr the 2-th chain: [ 1->3->11->19->27->35->43->51->59->67->75->83->91->99->107->115->123->131->139->147->1 ] (#non-depot=19) {#cumul.=39}
cr the 3-th chain: [ 1->4->12->20->28->36->44->52->60->68->76->84->92->100->108->116->124->132->140->148->1 ] (#non-depot=19) {#cumul.=58}
cr the 4-th chain: [ 1->5->13->21->29->37->45->53->61->69->77->85->93->101->109->117->125->133->141->149->1 ] (#non-depot=19) {#cumul.=77}
cr the 5-th chain: [ 1->6->14->22->30->38->46->54->62->70->78->86->94->102->110->118->126->134->142->150->1 ] (#non-depot=19) {#cumul.=96}
cr the 6-th chain: [ 1->7->15->23->31->39->47->55->63->71->79->87->95->103->111->119->127->135->143->151->1 ] (#non-depot=19) {#cumul.=115}
cr the 7-th chain: [ 1->8->16->24->32->40->48->56->64->72->80->88->96->104->112->120->128->136->144->152->1 ] (#non-depot=19) {#cumul.=134}
cr the 8-th chain: [ 1->9->17->25->33->41->49->57->65->73->81->89->97->105->113->121->129->137->145->1 ] (#non-depot=18) {#cumul.=152}
c Latest Answer = 0 by 1 loops
c restarts              : 2770
c conflicts             : 391833         (109 /sec)
c decisions             : 109741950      (0.00 % random) (30496 /sec)
c propagations          : 26209506899    (7283316 /sec)
c conflict literals     : 43844292       (14.23 % deleted)
c Memory used           : 5426.00 MB
c CPU time              : 3598.57 s
